benchmark/results/graph__15-1000-0.10-04_11/graph__15-1000-0.10-04_11_Quinton_Benders_primal_sub.lp
\ This file has been generated by DOcplex
\ ENCODING=ISO-8859-1
\Problem name: Quinton Benders_primal_sub

Maximize
 obj: tau
Subject To
 c1: tau <= 0.000889679715
 c2: y_a0_proc_1 + y_a0_proc_2 - tau = 0
 c3: y_a0_proc_1 <= 1
 c4: y_a0_proc_2 <= 0
 c5: tau <= 0.001470588235
 c6: y_a1_proc_0 + y_a1_proc_1 + y_a1_proc_2 + y_a1_proc_3 - tau = 0
 c7: y_a1_proc_0 <= 0
 c8: y_a1_proc_1 <= 0
 c9: y_a1_proc_2 <= 0
 c10: y_a1_proc_3 <= 1
 c11: tau <= 0.001128668172
 c12: y_a2_proc_0 + y_a2_proc_1 + y_a2_proc_2 + y_a2_proc_3 - tau = 0
 c13: y_a2_proc_0 <= 0
 c14: y_a2_proc_1 <= 0
 c15: y_a2_proc_2 <= 1
 c16: y_a2_proc_3 <= 0
 c17: tau <= 0.001683501684
 c18: y_a3_proc_0 + y_a3_proc_3 - tau = 0
 c19: y_a3_proc_0 <= 1
 c20: y_a3_proc_3 <= 0
 c21: tau <= 0.002032520325
 c22: y_a4_proc_1 + y_a4_proc_2 - tau = 0
 c23: y_a4_proc_1 <= 1
 c24: y_a4_proc_2 <= 0
 c25: tau <= 0.004739336493
 c26: y_a5_proc_0 + y_a5_proc_1 + y_a5_proc_2 + y_a5_proc_3 - tau = 0
 c27: y_a5_proc_0 <= 1
 c28: y_a5_proc_1 <= 0
 c29: y_a5_proc_2 <= 0
 c30: y_a5_proc_3 <= 0
 c31: tau <= 0.001652892562
 c32: y_a6_proc_0 + y_a6_proc_1 + y_a6_proc_2 - tau = 0
 c33: y_a6_proc_0 <= 0
 c34: y_a6_proc_1 <= 0
 c35: y_a6_proc_2 <= 1
 c36: tau <= 0.001254705144
 c37: y_a7_proc_0 + y_a7_proc_1 + y_a7_proc_3 - tau = 0
 c38: y_a7_proc_0 <= 1
 c39: y_a7_proc_1 <= 0
 c40: y_a7_proc_3 <= 0
 c41: tau <= 0.001037344398
 c42: y_a8_proc_0 + y_a8_proc_2 + y_a8_proc_3 - tau = 0
 c43: y_a8_proc_0 <= 0
 c44: y_a8_proc_2 <= 0
 c45: y_a8_proc_3 <= 1
 c46: tau <= 0.001307189542
 c47: y_a9_proc_2 - tau = 0
 c48: y_a9_proc_2 <= 1
 c49: tau <= 0.000899280576
 c50: y_a10_proc_0 + y_a10_proc_3 - tau = 0
 c51: y_a10_proc_0 <= 0
 c52: y_a10_proc_3 <= 1
 c53: tau <= 0.001529051988
 c54: y_a11_proc_0 + y_a11_proc_1 + y_a11_proc_2 - tau = 0
 c55: y_a11_proc_0 <= 0
 c56: y_a11_proc_1 <= 0
 c57: y_a11_proc_2 <= 1
 c58: tau <= 0.001390820584
 c59: y_a12_proc_3 - tau = 0
 c60: y_a12_proc_3 <= 1
 c61: tau <= 0.002754820937
 c62: y_a13_proc_0 + y_a13_proc_1 - tau = 0
 c63: y_a13_proc_0 <= 1
 c64: y_a13_proc_1 <= 0
 c65: tau <= 0.001201923077
 c66: y_a14_proc_0 + y_a14_proc_1 + y_a14_proc_3 - tau = 0
 c67: y_a14_proc_0 <= 1
 c68: y_a14_proc_1 <= 0
 c69: y_a14_proc_3 <= 0
 c70: u_a1 - u_a0 - 1124 y_a0_proc_1 - 1155 y_a0_proc_2 >= -1
 c71: u_a1 - u_a2 - 1150 y_a2_proc_0 - 722 y_a2_proc_1 - 886 y_a2_proc_2
      - 1209 y_a2_proc_3 >= 0
 c72: u_a3 - u_a1 - 1255 y_a1_proc_0 - 1187 y_a1_proc_1 - 876 y_a1_proc_2
      - 680 y_a1_proc_3 >= 0
 c73: u_a2 - u_a4 - 492 y_a4_proc_1 - 985 y_a4_proc_2 >= 0
 c74: u_a2 - u_a5 - 211 y_a5_proc_0 - 778 y_a5_proc_1 - 1167 y_a5_proc_2
      - 937 y_a5_proc_3 >= 0
 c75: u_a6 - u_a1 - 1255 y_a1_proc_0 - 1187 y_a1_proc_1 - 876 y_a1_proc_2
      - 680 y_a1_proc_3 >= -1
 c76: u_a5 - u_a7 - 797 y_a7_proc_0 - 937 y_a7_proc_1 - 472 y_a7_proc_3 >= 0
 c77: u_a0 - u_a8 - 941 y_a8_proc_0 - 1143 y_a8_proc_2 - 964 y_a8_proc_3 >= 0
 c78: u_a9 - u_a3 - 594 y_a3_proc_0 - 753 y_a3_proc_3 >= 0
 c79: u_a7 - u_a10 - 851 y_a10_proc_0 - 1112 y_a10_proc_3 >= 0
 c80: u_a11 - u_a2 - 1150 y_a2_proc_0 - 722 y_a2_proc_1 - 886 y_a2_proc_2
      - 1209 y_a2_proc_3 >= 0
 c81: u_a6 - u_a12 - 719 y_a12_proc_3 >= 0
 c82: u_a13 - u_a9 - 765 y_a9_proc_2 >= 0
 c83: u_a12 - u_a14 - 832 y_a14_proc_0 - 951 y_a14_proc_1 - 1162 y_a14_proc_3
       >= 0
 c84: u_a6 - u_a14 - 832 y_a14_proc_0 - 951 y_a14_proc_1 - 1162 y_a14_proc_3
       >= 0
 c85: u_a8 - u_a13 - 363 y_a13_proc_0 - 737 y_a13_proc_1 >= -1
 c86: u_a8 - u_a6 - 892 y_a6_proc_0 - 1218 y_a6_proc_1 - 605 y_a6_proc_2 >= 0
 c87: u_a5 - u_a9 - 765 y_a9_proc_2 >= -1
 c88: u_a14 - u_a4 - 492 y_a4_proc_1 - 985 y_a4_proc_2 >= 0
 c89: u_a4 - u_a13 - 363 y_a13_proc_0 - 737 y_a13_proc_1 >= -1
 c90: u_a12 - u_a11 - 980 y_a11_proc_0 - 929 y_a11_proc_1 - 654 y_a11_proc_2
       >= -1
 c91: u_a5 - u_a6 - 892 y_a6_proc_0 - 1218 y_a6_proc_1 - 605 y_a6_proc_2 >= 0
 c92: u_a10 - u_a3 - 594 y_a3_proc_0 - 753 y_a3_proc_3 >= -1
 c93: - 832 y_a14_proc_0 - 951 y_a14_proc_1 - 1162 y_a14_proc_3 >= -1
 c94: u_a1 - u_a0 - 1155 y_a0_proc_2 >= -3766
 c95: u_a1 - u_a0 - 1124 y_a0_proc_1 >= -2511
 c96: u_a0 - u_a1 - 876 y_a1_proc_2 >= -1255
 c97: u_a0 - u_a1 - 1187 y_a1_proc_1 >= 0
 c98: u_a2 - u_a0 - 1155 y_a0_proc_2 >= -2
 c99: u_a2 - u_a0 - 1124 y_a0_proc_1 >= -2
 c100: u_a0 - u_a2 - 886 y_a2_proc_2 >= -2509
 c101: u_a0 - u_a2 - 722 y_a2_proc_1 >= -2509
 c102: u_a4 - u_a0 - 1155 y_a0_proc_2 >= -2512
 c103: u_a4 - u_a0 - 1124 y_a0_proc_1 >= -2
 c104: u_a0 - u_a4 - 985 y_a4_proc_2 >= -2509
 c105: u_a0 - u_a4 - 492 y_a4_proc_1 >= 1
 c106: u_a5 - u_a0 - 1155 y_a0_proc_2 >= -3766
 c107: u_a5 - u_a0 - 1124 y_a0_proc_1 >= -2511
 c108: u_a0 - u_a5 - 1167 y_a5_proc_2 >= -1255
 c109: u_a0 - u_a5 - 778 y_a5_proc_1 >= 0
 c110: u_a6 - u_a0 - 1155 y_a0_proc_2 >= -2512
 c111: u_a6 - u_a0 - 1124 y_a0_proc_1 >= -2512
 c112: u_a0 - u_a6 - 605 y_a6_proc_2 >= 1
 c113: u_a0 - u_a6 - 1218 y_a6_proc_1 >= 1
 c114: u_a7 - u_a0 - 1124 y_a0_proc_1 >= -2512
 c115: u_a0 - u_a7 - 937 y_a7_proc_1 >= 1
 c116: u_a8 - u_a0 - 1155 y_a0_proc_2 >= -5021
 c117: u_a0 - u_a8 - 1143 y_a8_proc_2 >= 0
 c118: u_a9 - u_a0 - 1155 y_a0_proc_2 >= -2511
 c119: u_a0 - u_a9 - 765 y_a9_proc_2 >= 0
 c120: u_a11 - u_a0 - 1155 y_a0_proc_2 >= -2
 c121: u_a11 - u_a0 - 1124 y_a0_proc_1 >= -2
 c122: u_a0 - u_a11 - 654 y_a11_proc_2 >= -2509
 c123: u_a0 - u_a11 - 929 y_a11_proc_1 >= -2509
 c124: u_a13 - u_a0 - 1124 y_a0_proc_1 >= -508
 c125: u_a0 - u_a13 - 737 y_a13_proc_1 >= -2003
 c126: u_a14 - u_a0 - 1124 y_a0_proc_1 >= -2512
 c127: u_a0 - u_a14 - 951 y_a14_proc_1 >= 1
 c128: u_a2 - u_a1 - 1255 y_a1_proc_0 >= -3766
 c129: u_a2 - u_a1 - 876 y_a1_proc_2 >= -2511
 c130: u_a2 - u_a1 - 680 y_a1_proc_3 >= -2511
 c131: u_a2 - u_a1 - 1187 y_a1_proc_1 >= -3766
 c132: u_a1 - u_a2 - 1150 y_a2_proc_0 >= -1255
 c133: u_a1 - u_a2 - 886 y_a2_proc_2 >= 0
 c134: u_a1 - u_a2 - 1209 y_a2_proc_3 >= 0
 c135: u_a1 - u_a2 - 722 y_a2_proc_1 >= -1255
 c136: u_a3 - u_a1 - 1255 y_a1_proc_0 >= -2510
 c137: u_a3 - u_a1 - 680 y_a1_proc_3 >= -2510
 c138: u_a1 - u_a3 - 594 y_a3_proc_0 >= -1
 c139: u_a1 - u_a3 - 753 y_a3_proc_3 >= -1
 c140: u_a4 - u_a1 - 876 y_a1_proc_2 >= -3766
 c141: u_a4 - u_a1 - 1187 y_a1_proc_1 >= -2511
 c142: u_a1 - u_a4 - 985 y_a4_proc_2 >= -1255
 c143: u_a1 - u_a4 - 492 y_a4_proc_1 >= 0
 c144: u_a5 - u_a1 - 1255 y_a1_proc_0 >= -2511
 c145: u_a5 - u_a1 - 876 y_a1_proc_2 >= -3766
 c146: u_a5 - u_a1 - 680 y_a1_proc_3 >= -2511
 c147: u_a5 - u_a1 - 1187 y_a1_proc_1 >= -3766
 c148: u_a1 - u_a5 - 211 y_a5_proc_0 >= 0
 c149: u_a1 - u_a5 - 1167 y_a5_proc_2 >= -1255
 c150: u_a1 - u_a5 - 937 y_a5_proc_3 >= 0
 c151: u_a1 - u_a5 - 778 y_a5_proc_1 >= -1255
 c152: u_a6 - u_a1 - 1255 y_a1_proc_0 >= -3766
 c153: u_a6 - u_a1 - 876 y_a1_proc_2 >= -2511
 c154: u_a6 - u_a1 - 1187 y_a1_proc_1 >= -3766
 c155: u_a1 - u_a6 - 892 y_a6_proc_0 >= -1255
 c156: u_a1 - u_a6 - 605 y_a6_proc_2 >= 0
 c157: u_a1 - u_a6 - 1218 y_a6_proc_1 >= -1255
 c158: u_a7 - u_a1 - 1255 y_a1_proc_0 >= -2511
 c159: u_a7 - u_a1 - 680 y_a1_proc_3 >= -2511
 c160: u_a7 - u_a1 - 1187 y_a1_proc_1 >= -3766
 c161: u_a1 - u_a7 - 797 y_a7_proc_0 >= 0
 c162: u_a1 - u_a7 - 472 y_a7_proc_3 >= 0
 c163: u_a1 - u_a7 - 937 y_a7_proc_1 >= -1255
 c164: u_a8 - u_a1 - 1255 y_a1_proc_0 >= -2510
 c165: u_a8 - u_a1 - 876 y_a1_proc_2 >= -2510
 c166: u_a8 - u_a1 - 680 y_a1_proc_3 >= 0
 c167: u_a1 - u_a8 - 941 y_a8_proc_0 >= -2511
 c168: u_a1 - u_a8 - 1143 y_a8_proc_2 >= -2511
 c169: u_a1 - u_a8 - 964 y_a8_proc_3 >= -1
 c170: u_a9 - u_a1 - 876 y_a1_proc_2 >= -2510
 c171: u_a1 - u_a9 - 765 y_a9_proc_2 >= -1
 c172: u_a10 - u_a1 - 1255 y_a1_proc_0 >= -2511
 c173: u_a10 - u_a1 - 680 y_a1_proc_3 >= -1
 c174: u_a1 - u_a10 - 851 y_a10_proc_0 >= -2510
 c175: u_a1 - u_a10 - 1112 y_a10_proc_3 >= 0
 c176: u_a11 - u_a1 - 1255 y_a1_proc_0 >= -1256
 c177: u_a11 - u_a1 - 876 y_a1_proc_2 >= -1
 c178: u_a11 - u_a1 - 1187 y_a1_proc_1 >= -1256
 c179: u_a1 - u_a11 - 980 y_a11_proc_0 >= -3765
 c180: u_a1 - u_a11 - 654 y_a11_proc_2 >= -2510
 c181: u_a1 - u_a11 - 929 y_a11_proc_1 >= -3765
 c182: u_a12 - u_a1 - 680 y_a1_proc_3 >= -1
 c183: u_a1 - u_a12 - 719 y_a12_proc_3 >= 0
 c184: u_a13 - u_a1 - 1255 y_a1_proc_0 >= -2510
 c185: u_a13 - u_a1 - 1187 y_a1_proc_1 >= -3765
 c186: u_a1 - u_a13 - 363 y_a13_proc_0 >= -1
 c187: u_a1 - u_a13 - 737 y_a13_proc_1 >= -1256
 c188: u_a14 - u_a1 - 1255 y_a1_proc_0 >= -2511
 c189: u_a14 - u_a1 - 680 y_a1_proc_3 >= -2511
 c190: u_a14 - u_a1 - 1187 y_a1_proc_1 >= -3766
 c191: u_a1 - u_a14 - 832 y_a14_proc_0 >= 0
 c192: u_a1 - u_a14 - 1162 y_a14_proc_3 >= 0
 c193: u_a1 - u_a14 - 951 y_a14_proc_1 >= -1255
 c194: u_a3 - u_a2 - 1150 y_a2_proc_0 >= -2510
 c195: u_a3 - u_a2 - 1209 y_a2_proc_3 >= -3765
 c196: u_a2 - u_a3 - 594 y_a3_proc_0 >= -1
 c197: u_a2 - u_a3 - 753 y_a3_proc_3 >= -1256
 c198: u_a4 - u_a2 - 886 y_a2_proc_2 >= -2511
 c199: u_a4 - u_a2 - 722 y_a2_proc_1 >= -2511
 c200: u_a2 - u_a4 - 985 y_a4_proc_2 >= 0
 c201: u_a2 - u_a4 - 492 y_a4_proc_1 >= 0
 c202: u_a5 - u_a2 - 1150 y_a2_proc_0 >= -2510
 c203: u_a5 - u_a2 - 886 y_a2_proc_2 >= -2510
 c204: u_a5 - u_a2 - 1209 y_a2_proc_3 >= -3765
 c205: u_a5 - u_a2 - 722 y_a2_proc_1 >= -3765
 c206: u_a2 - u_a5 - 211 y_a5_proc_0 >= -1
 c207: u_a2 - u_a5 - 1167 y_a5_proc_2 >= -1
 c208: u_a2 - u_a5 - 937 y_a5_proc_3 >= -1256
 c209: u_a2 - u_a5 - 778 y_a5_proc_1 >= -1256
 c210: u_a6 - u_a2 - 1150 y_a2_proc_0 >= -2511
 c211: u_a6 - u_a2 - 886 y_a2_proc_2 >= -1
 c212: u_a6 - u_a2 - 722 y_a2_proc_1 >= -2511
 c213: u_a2 - u_a6 - 892 y_a6_proc_0 >= -2510
 c214: u_a2 - u_a6 - 605 y_a6_proc_2 >= 0
 c215: u_a2 - u_a6 - 1218 y_a6_proc_1 >= -2510
 c216: u_a7 - u_a2 - 1150 y_a2_proc_0 >= -2511
 c217: u_a7 - u_a2 - 1209 y_a2_proc_3 >= -3766
 c218: u_a7 - u_a2 - 722 y_a2_proc_1 >= -3766
 c219: u_a2 - u_a7 - 797 y_a7_proc_0 >= 0
 c220: u_a2 - u_a7 - 472 y_a7_proc_3 >= -1255
 c221: u_a2 - u_a7 - 937 y_a7_proc_1 >= -1255
 c222: u_a8 - u_a2 - 1150 y_a2_proc_0 >= -3059
 c223: u_a8 - u_a2 - 886 y_a2_proc_2 >= -1804
 c224: u_a8 - u_a2 - 1209 y_a2_proc_3 >= -1804
 c225: u_a2 - u_a8 - 941 y_a8_proc_0 >= -1962
 c226: u_a2 - u_a8 - 1143 y_a8_proc_2 >= -707
 c227: u_a2 - u_a8 - 964 y_a8_proc_3 >= -707
 c228: u_a9 - u_a2 - 886 y_a2_proc_2 >= 0
 c229: u_a2 - u_a9 - 765 y_a9_proc_2 >= -1
 c230: u_a10 - u_a2 - 1150 y_a2_proc_0 >= -3766
 c231: u_a10 - u_a2 - 1209 y_a2_proc_3 >= -2511
 c232: u_a2 - u_a10 - 851 y_a10_proc_0 >= -1255
 c233: u_a2 - u_a10 - 1112 y_a10_proc_3 >= 0
 c234: u_a11 - u_a2 - 1150 y_a2_proc_0 >= -2510
 c235: u_a11 - u_a2 - 886 y_a2_proc_2 >= 0
 c236: u_a11 - u_a2 - 722 y_a2_proc_1 >= -2510
 c237: u_a2 - u_a11 - 980 y_a11_proc_0 >= -2511
 c238: u_a2 - u_a11 - 654 y_a11_proc_2 >= -1
 c239: u_a2 - u_a11 - 929 y_a11_proc_1 >= -2511
 c240: u_a12 - u_a2 - 1209 y_a2_proc_3 >= -2511
 c241: u_a2 - u_a12 - 719 y_a12_proc_3 >= 0
 c242: u_a13 - u_a2 - 1150 y_a2_proc_0 >= -2510
 c243: u_a13 - u_a2 - 722 y_a2_proc_1 >= -3765
 c244: u_a2 - u_a13 - 363 y_a13_proc_0 >= -1
 c245: u_a2 - u_a13 - 737 y_a13_proc_1 >= -1256
 c246: u_a14 - u_a2 - 1150 y_a2_proc_0 >= -2511
 c247: u_a14 - u_a2 - 1209 y_a2_proc_3 >= -3766
 c248: u_a14 - u_a2 - 722 y_a2_proc_1 >= -3766
 c249: u_a2 - u_a14 - 832 y_a14_proc_0 >= 0
 c250: u_a2 - u_a14 - 1162 y_a14_proc_3 >= -1255
 c251: u_a2 - u_a14 - 951 y_a14_proc_1 >= -1255
 c252: u_a5 - u_a3 - 594 y_a3_proc_0 >= -1
 c253: u_a5 - u_a3 - 753 y_a3_proc_3 >= -2511
 c254: u_a3 - u_a5 - 211 y_a5_proc_0 >= 0
 c255: u_a3 - u_a5 - 937 y_a5_proc_3 >= -2510
 c256: u_a6 - u_a3 - 594 y_a3_proc_0 >= -2511
 c257: u_a3 - u_a6 - 892 y_a6_proc_0 >= 0
 c258: u_a7 - u_a3 - 594 y_a3_proc_0 >= -1
 c259: u_a7 - u_a3 - 753 y_a3_proc_3 >= -2511
 c260: u_a3 - u_a7 - 797 y_a7_proc_0 >= 0
 c261: u_a3 - u_a7 - 472 y_a7_proc_3 >= -2510
 c262: u_a8 - u_a3 - 594 y_a3_proc_0 >= -2510
 c263: u_a8 - u_a3 - 753 y_a3_proc_3 >= -2510
 c264: u_a3 - u_a8 - 941 y_a8_proc_0 >= -1
 c265: u_a3 - u_a8 - 964 y_a8_proc_3 >= -1
 c266: u_a10 - u_a3 - 594 y_a3_proc_0 >= -2511
 c267: u_a10 - u_a3 - 753 y_a3_proc_3 >= -2511
 c268: u_a3 - u_a10 - 851 y_a10_proc_0 >= 0
 c269: u_a3 - u_a10 - 1112 y_a10_proc_3 >= 0
 c270: u_a11 - u_a3 - 594 y_a3_proc_0 >= -2511
 c271: u_a3 - u_a11 - 980 y_a11_proc_0 >= 0
 c272: u_a12 - u_a3 - 753 y_a3_proc_3 >= -2511
 c273: u_a3 - u_a12 - 719 y_a12_proc_3 >= 0
 c274: u_a13 - u_a3 - 594 y_a3_proc_0 >= 0
 c275: u_a3 - u_a13 - 363 y_a13_proc_0 >= -1
 c276: u_a14 - u_a3 - 594 y_a3_proc_0 >= -1
 c277: u_a14 - u_a3 - 753 y_a3_proc_3 >= -2511
 c278: u_a3 - u_a14 - 832 y_a14_proc_0 >= 0
 c279: u_a3 - u_a14 - 1162 y_a14_proc_3 >= -2510
 c280: u_a5 - u_a4 - 985 y_a4_proc_2 >= -3765
 c281: u_a5 - u_a4 - 492 y_a4_proc_1 >= -2510
 c282: u_a4 - u_a5 - 1167 y_a5_proc_2 >= -1256
 c283: u_a4 - u_a5 - 778 y_a5_proc_1 >= -1
 c284: u_a6 - u_a4 - 985 y_a4_proc_2 >= -2510
 c285: u_a6 - u_a4 - 492 y_a4_proc_1 >= -2510
 c286: u_a4 - u_a6 - 605 y_a6_proc_2 >= -1
 c287: u_a4 - u_a6 - 1218 y_a6_proc_1 >= -1
 c288: u_a7 - u_a4 - 492 y_a4_proc_1 >= -2510
 c289: u_a4 - u_a7 - 937 y_a7_proc_1 >= -1
 c290: u_a8 - u_a4 - 985 y_a4_proc_2 >= -5019
 c291: u_a4 - u_a8 - 1143 y_a8_proc_2 >= -2
 c292: u_a9 - u_a4 - 985 y_a4_proc_2 >= -2510
 c293: u_a4 - u_a9 - 765 y_a9_proc_2 >= -1
 c294: u_a11 - u_a4 - 985 y_a4_proc_2 >= -2510
 c295: u_a11 - u_a4 - 492 y_a4_proc_1 >= -2510
 c296: u_a4 - u_a11 - 654 y_a11_proc_2 >= -1
 c297: u_a4 - u_a11 - 929 y_a11_proc_1 >= -1
 c298: u_a13 - u_a4 - 492 y_a4_proc_1 >= 0
 c299: u_a4 - u_a13 - 737 y_a13_proc_1 >= -2511
 c300: u_a14 - u_a4 - 492 y_a4_proc_1 >= -2510
 c301: u_a4 - u_a14 - 951 y_a14_proc_1 >= -1
 c302: u_a6 - u_a5 - 211 y_a5_proc_0 >= -1
 c303: u_a6 - u_a5 - 1167 y_a5_proc_2 >= -1
 c304: u_a6 - u_a5 - 778 y_a5_proc_1 >= -1256
 c305: u_a5 - u_a6 - 892 y_a6_proc_0 >= -2510
 c306: u_a5 - u_a6 - 605 y_a6_proc_2 >= -2510
 c307: u_a5 - u_a6 - 1218 y_a6_proc_1 >= -3765
 c308: u_a7 - u_a5 - 211 y_a5_proc_0 >= -1
 c309: u_a7 - u_a5 - 937 y_a5_proc_3 >= -2511
 c310: u_a7 - u_a5 - 778 y_a5_proc_1 >= -2511
 c311: u_a5 - u_a7 - 797 y_a7_proc_0 >= 0
 c312: u_a5 - u_a7 - 472 y_a7_proc_3 >= -2510
 c313: u_a5 - u_a7 - 937 y_a7_proc_1 >= -2510
 c314: u_a8 - u_a5 - 211 y_a5_proc_0 >= -2510
 c315: u_a8 - u_a5 - 1167 y_a5_proc_2 >= -3765
 c316: u_a8 - u_a5 - 937 y_a5_proc_3 >= -2510
 c317: u_a5 - u_a8 - 941 y_a8_proc_0 >= -1
 c318: u_a5 - u_a8 - 1143 y_a8_proc_2 >= -1256
 c319: u_a5 - u_a8 - 964 y_a8_proc_3 >= -1
 c320: u_a9 - u_a5 - 1167 y_a5_proc_2 >= -2510
 c321: u_a5 - u_a9 - 765 y_a9_proc_2 >= -1
 c322: u_a10 - u_a5 - 211 y_a5_proc_0 >= -2511
 c323: u_a10 - u_a5 - 937 y_a5_proc_3 >= -2511
 c324: u_a5 - u_a10 - 851 y_a10_proc_0 >= 0
 c325: u_a5 - u_a10 - 1112 y_a10_proc_3 >= 0
 c326: u_a11 - u_a5 - 211 y_a5_proc_0 >= -2510
 c327: u_a11 - u_a5 - 1167 y_a5_proc_2 >= -2510
 c328: u_a11 - u_a5 - 778 y_a5_proc_1 >= -3765
 c329: u_a5 - u_a11 - 980 y_a11_proc_0 >= -1
 c330: u_a5 - u_a11 - 654 y_a11_proc_2 >= -1
 c331: u_a5 - u_a11 - 929 y_a11_proc_1 >= -1256
 c332: u_a12 - u_a5 - 937 y_a5_proc_3 >= -2511
 c333: u_a5 - u_a12 - 719 y_a12_proc_3 >= 0
 c334: u_a13 - u_a5 - 211 y_a5_proc_0 >= 0
 c335: u_a13 - u_a5 - 778 y_a5_proc_1 >= -2510
 c336: u_a5 - u_a13 - 363 y_a13_proc_0 >= -1
 c337: u_a5 - u_a13 - 737 y_a13_proc_1 >= -2511
 c338: u_a14 - u_a5 - 211 y_a5_proc_0 >= -1
 c339: u_a14 - u_a5 - 937 y_a5_proc_3 >= -2511
 c340: u_a14 - u_a5 - 778 y_a5_proc_1 >= -2511
 c341: u_a5 - u_a14 - 832 y_a14_proc_0 >= 0
 c342: u_a5 - u_a14 - 1162 y_a14_proc_3 >= -2510
 c343: u_a5 - u_a14 - 951 y_a14_proc_1 >= -2510
 c344: u_a7 - u_a6 - 892 y_a6_proc_0 >= -2164
 c345: u_a7 - u_a6 - 1218 y_a6_proc_1 >= -3419
 c346: u_a6 - u_a7 - 797 y_a7_proc_0 >= -347
 c347: u_a6 - u_a7 - 937 y_a7_proc_1 >= -1602
 c348: u_a8 - u_a6 - 892 y_a6_proc_0 >= -3764
 c349: u_a8 - u_a6 - 605 y_a6_proc_2 >= -2509
 c350: u_a6 - u_a8 - 941 y_a8_proc_0 >= -1257
 c351: u_a6 - u_a8 - 1143 y_a8_proc_2 >= -2
 c352: u_a9 - u_a6 - 605 y_a6_proc_2 >= 0
 c353: u_a6 - u_a9 - 765 y_a9_proc_2 >= -1
 c354: u_a10 - u_a6 - 892 y_a6_proc_0 >= -5021
 c355: u_a6 - u_a10 - 851 y_a10_proc_0 >= 0
 c356: u_a11 - u_a6 - 892 y_a6_proc_0 >= -2510
 c357: u_a11 - u_a6 - 605 y_a6_proc_2 >= 0
 c358: u_a11 - u_a6 - 1218 y_a6_proc_1 >= -2510
 c359: u_a6 - u_a11 - 980 y_a11_proc_0 >= -2511
 c360: u_a6 - u_a11 - 654 y_a11_proc_2 >= -1
 c361: u_a6 - u_a11 - 929 y_a11_proc_1 >= -2511
 c362: u_a13 - u_a6 - 892 y_a6_proc_0 >= -2510
 c363: u_a13 - u_a6 - 1218 y_a6_proc_1 >= -3765
 c364: u_a6 - u_a13 - 363 y_a13_proc_0 >= -1
 c365: u_a6 - u_a13 - 737 y_a13_proc_1 >= -1256
 c366: u_a14 - u_a6 - 892 y_a6_proc_0 >= -1
 c367: u_a14 - u_a6 - 1218 y_a6_proc_1 >= -1256
 c368: u_a6 - u_a14 - 832 y_a14_proc_0 >= -2510
 c369: u_a6 - u_a14 - 951 y_a14_proc_1 >= -3765
 c370: u_a8 - u_a7 - 797 y_a7_proc_0 >= -2509
 c371: u_a8 - u_a7 - 472 y_a7_proc_3 >= -2509
 c372: u_a7 - u_a8 - 941 y_a8_proc_0 >= -2
 c373: u_a7 - u_a8 - 964 y_a8_proc_3 >= -2
 c374: u_a10 - u_a7 - 797 y_a7_proc_0 >= -2511
 c375: u_a10 - u_a7 - 472 y_a7_proc_3 >= -2511
 c376: u_a7 - u_a10 - 851 y_a10_proc_0 >= 0
 c377: u_a7 - u_a10 - 1112 y_a10_proc_3 >= 0
 c378: u_a11 - u_a7 - 797 y_a7_proc_0 >= -2510
 c379: u_a11 - u_a7 - 937 y_a7_proc_1 >= -3765
 c380: u_a7 - u_a11 - 980 y_a11_proc_0 >= -1
 c381: u_a7 - u_a11 - 929 y_a11_proc_1 >= -1256
 c382: u_a12 - u_a7 - 472 y_a7_proc_3 >= -1
 c383: u_a7 - u_a12 - 719 y_a12_proc_3 >= -2510
 c384: u_a13 - u_a7 - 797 y_a7_proc_0 >= 0
 c385: u_a13 - u_a7 - 937 y_a7_proc_1 >= -2510
 c386: u_a7 - u_a13 - 363 y_a13_proc_0 >= -1
 c387: u_a7 - u_a13 - 737 y_a13_proc_1 >= -2511
 c388: u_a14 - u_a7 - 797 y_a7_proc_0 >= -1
 c389: u_a14 - u_a7 - 472 y_a7_proc_3 >= -2511
 c390: u_a14 - u_a7 - 937 y_a7_proc_1 >= -2511
 c391: u_a7 - u_a14 - 832 y_a14_proc_0 >= 0
 c392: u_a7 - u_a14 - 1162 y_a14_proc_3 >= -2510
 c393: u_a7 - u_a14 - 951 y_a14_proc_1 >= -2510
 c394: u_a9 - u_a8 - 1143 y_a8_proc_2 >= -2511
 c395: u_a8 - u_a9 - 765 y_a9_proc_2 >= 0
 c396: u_a10 - u_a8 - 941 y_a8_proc_0 >= -2512
 c397: u_a10 - u_a8 - 964 y_a8_proc_3 >= -2
 c398: u_a8 - u_a10 - 851 y_a10_proc_0 >= -2509
 c399: u_a8 - u_a10 - 1112 y_a10_proc_3 >= 1
 c400: u_a11 - u_a8 - 941 y_a8_proc_0 >= -3766
 c401: u_a11 - u_a8 - 1143 y_a8_proc_2 >= -2511
 c402: u_a8 - u_a11 - 980 y_a11_proc_0 >= -1255
 c403: u_a8 - u_a11 - 654 y_a11_proc_2 >= 0
 c404: u_a12 - u_a8 - 964 y_a8_proc_3 >= -2
 c405: u_a8 - u_a12 - 719 y_a12_proc_3 >= 1
 c406: u_a13 - u_a8 - 941 y_a8_proc_0 >= -2511
 c407: u_a8 - u_a13 - 363 y_a13_proc_0 >= 0
 c408: u_a14 - u_a8 - 941 y_a8_proc_0 >= -2512
 c409: u_a14 - u_a8 - 964 y_a8_proc_3 >= -2512
 c410: u_a8 - u_a14 - 832 y_a14_proc_0 >= 1
 c411: u_a8 - u_a14 - 1162 y_a14_proc_3 >= 1
 c412: u_a11 - u_a9 - 765 y_a9_proc_2 >= -1
 c413: u_a9 - u_a11 - 654 y_a11_proc_2 >= 0
 c414: u_a11 - u_a10 - 851 y_a10_proc_0 >= -5020
 c415: u_a10 - u_a11 - 980 y_a11_proc_0 >= -1
 c416: u_a12 - u_a10 - 1112 y_a10_proc_3 >= 0
 c417: u_a10 - u_a12 - 719 y_a12_proc_3 >= -1
 c418: u_a13 - u_a10 - 851 y_a10_proc_0 >= 1
 c419: u_a10 - u_a13 - 363 y_a13_proc_0 >= -2512
 c420: u_a14 - u_a10 - 851 y_a10_proc_0 >= -2086
 c421: u_a14 - u_a10 - 1112 y_a10_proc_3 >= -2086
 c422: u_a10 - u_a14 - 832 y_a14_proc_0 >= -425
 c423: u_a10 - u_a14 - 1162 y_a14_proc_3 >= -425
 c424: u_a13 - u_a11 - 980 y_a11_proc_0 >= -2510
 c425: u_a13 - u_a11 - 929 y_a11_proc_1 >= -3765
 c426: u_a11 - u_a13 - 363 y_a13_proc_0 >= -1
 c427: u_a11 - u_a13 - 737 y_a13_proc_1 >= -1256
 c428: u_a14 - u_a11 - 980 y_a11_proc_0 >= -2511
 c429: u_a14 - u_a11 - 929 y_a11_proc_1 >= -3766
 c430: u_a11 - u_a14 - 832 y_a14_proc_0 >= 0
 c431: u_a11 - u_a14 - 951 y_a14_proc_1 >= -1255
 c432: u_a14 - u_a12 - 719 y_a12_proc_3 >= -1
 c433: u_a12 - u_a14 - 1162 y_a14_proc_3 >= -2510
 c434: u_a14 - u_a13 - 363 y_a13_proc_0 >= -1
 c435: u_a14 - u_a13 - 737 y_a13_proc_1 >= -2511
 c436: u_a13 - u_a14 - 832 y_a14_proc_0 >= 0
 c437: u_a13 - u_a14 - 951 y_a14_proc_1 >= -2510

Bounds
End
